generated by phonopy
   1.0
    12.8189080799999999   -7.4009999999999998    0.0000000000000000
     0.0000000000000000   14.8020000600000010    0.0000000000000000
     0.0000000000000000    0.0000000000000000   15.0000000000000000
C
  72
Direct
  0.0560300768628304  0.1111110931197801  0.5004745259878607
  0.2222222175416363  0.1111110931197801  0.5000000000000000
  0.3888888842083030  0.1111110931197801  0.5000000000000000
  0.5555555508749697  0.1111110931197801  0.5000000000000000
  0.7222222175416363  0.1111110931197801  0.5000000000000000
  0.8888888842083029  0.1111110931197801  0.5000000000000000
  0.0555555508749697  0.2777777597864468  0.5000000000000000
  0.2222222175416363  0.2777777597864468  0.5000000000000000
  0.3888888842083030  0.2777777597864468  0.5000000000000000
  0.5555555508749697  0.2777777597864468  0.5000000000000000
  0.7222222175416363  0.2777777597864468  0.5000000000000000
  0.8888888842083029  0.2777777597864468  0.5000000000000000
  0.0555555508749697  0.4444444264531133  0.5000000000000000
  0.2222222175416363  0.4444444264531133  0.5000000000000000
  0.3888888842083030  0.4444444264531134  0.5000000000000000
  0.5555555508749697  0.4444444264531134  0.5000000000000000
  0.7222222175416363  0.4444444264531134  0.5000000000000000
  0.8888888842083029  0.4444444264531134  0.5000000000000000
  0.0555555508749697  0.6111110931197801  0.5000000000000000
  0.2222222175416363  0.6111110931197801  0.5000000000000000
  0.3888888842083030  0.6111110931197800  0.5000000000000000
  0.5555555508749697  0.6111110931197801  0.5000000000000000
  0.7222222175416363  0.6111110931197801  0.5000000000000000
  0.8888888842083029  0.6111110931197801  0.5000000000000000
  0.0555555508749697  0.7777777597864467  0.5000000000000000
  0.2222222175416363  0.7777777597864466  0.5000000000000000
  0.3888888842083030  0.7777777597864466  0.5000000000000000
  0.5555555508749697  0.7777777597864467  0.5000000000000000
  0.7222222175416363  0.7777777597864467  0.5000000000000000
  0.8888888842083029  0.7777777597864467  0.5000000000000000
  0.0555555508749697  0.9444444264531133  0.5000000000000000
  0.2222222175416363  0.9444444264531132  0.5000000000000000
  0.3888888842083030  0.9444444264531132  0.5000000000000000
  0.5555555508749697  0.9444444264531133  0.5000000000000000
  0.7222222175416363  0.9444444264531132  0.5000000000000000
  0.8888888842083029  0.9444444264531133  0.5000000000000000
  0.1111111157916970  0.0555555735468866  0.5000000000000000
  0.2777777824583636  0.0555555735468866  0.5000000000000000
  0.4444444491250303  0.0555555735468866  0.5000000000000000
  0.6111111157916970  0.0555555735468866  0.5000000000000000
  0.7777777824583636  0.0555555735468865  0.5000000000000000
  0.9444444491250304  0.0555555735468866  0.5000000000000000
  0.1111111157916970  0.2222222402135532  0.5000000000000000
  0.2777777824583636  0.2222222402135532  0.5000000000000000
  0.4444444491250303  0.2222222402135532  0.5000000000000000
  0.6111111157916970  0.2222222402135532  0.5000000000000000
  0.7777777824583636  0.2222222402135532  0.5000000000000000
  0.9444444491250304  0.2222222402135532  0.5000000000000000
  0.1111111157916970  0.3888889068802199  0.5000000000000000
  0.2777777824583636  0.3888889068802199  0.5000000000000000
  0.4444444491250303  0.3888889068802199  0.5000000000000000
  0.6111111157916970  0.3888889068802199  0.5000000000000000
  0.7777777824583636  0.3888889068802199  0.5000000000000000
  0.9444444491250304  0.3888889068802199  0.5000000000000000
  0.1111111157916970  0.5555555735468866  0.5000000000000000
  0.2777777824583636  0.5555555735468866  0.5000000000000000
  0.4444444491250303  0.5555555735468866  0.5000000000000000
  0.6111111157916970  0.5555555735468866  0.5000000000000000
  0.7777777824583636  0.5555555735468866  0.5000000000000000
  0.9444444491250304  0.5555555735468866  0.5000000000000000
  0.1111111157916970  0.7222222402135531  0.5000000000000000
  0.2777777824583636  0.7222222402135532  0.5000000000000000
  0.4444444491250303  0.7222222402135532  0.5000000000000000
  0.6111111157916970  0.7222222402135531  0.5000000000000000
  0.7777777824583636  0.7222222402135531  0.5000000000000000
  0.9444444491250304  0.7222222402135532  0.5000000000000000
  0.1111111157916970  0.8888889068802198  0.5000000000000000
  0.2777777824583636  0.8888889068802199  0.5000000000000000
  0.4444444491250303  0.8888889068802198  0.5000000000000000
  0.6111111157916970  0.8888889068802198  0.5000000000000000
  0.7777777824583636  0.8888889068802198  0.5000000000000000
  0.9444444491250304  0.8888889068802199  0.5000000000000000
