graphene optimized by GPUMD 
 1.0000000000000000
     2.1364846800000001   -1.2335000000000000    0.0000000000000000
     0.0000000000000000    2.4670000100000000    0.0000000000000000
     0.0000000000000000    0.0000000000000000   15.0000000000000000
 C  
   2
Direct
  0.3333333052498181  0.6666665587186806  0.5000000000000000
  0.6666666947501818  0.3333334412813194  0.5000000000000000
